model-pulp/optimal_allocation_model_pulp.txt
__dummy = None
x_202505_P0001_RetailPartner1 = 55.0
x_202505_P0001_RetailPartner2 = 70.0
x_202505_P0001_RetailPartner3 = 15.0
x_202505_P0001_RetailPartner4 = 13.0
x_202505_P0002_RetailPartner1 = 132.0
x_202505_P0002_RetailPartner2 = 130.0
x_202505_P0002_RetailPartner3 = 8.0
x_202505_P0002_RetailPartner4 = 5.0
x_202505_P0003_RetailPartner1 = 67.0
x_202505_P0003_RetailPartner2 = 61.0
x_202505_P0003_RetailPartner3 = 4.0
x_202505_P0003_RetailPartner4 = 6.0
x_202505_P0004_RetailPartner1 = 56.0
x_202505_P0004_RetailPartner2 = 71.0
x_202505_P0004_RetailPartner3 = 15.0
x_202505_P0004_RetailPartner4 = 17.0
x_202506_P0001_RetailPartner1 = 61.0
x_202506_P0001_RetailPartner2 = 66.0
x_202506_P0001_RetailPartner3 = 13.0
x_202506_P0001_RetailPartner4 = 10.0
x_202506_P0002_RetailPartner1 = 51.0
x_202506_P0002_RetailPartner2 = 61.0
x_202506_P0002_RetailPartner3 = 6.0
x_202506_P0002_RetailPartner4 = 17.0
x_202506_P0003_RetailPartner1 = 57.0
x_202506_P0003_RetailPartner2 = 50.0
x_202506_P0003_RetailPartner3 = 1.0
x_202506_P0003_RetailPartner4 = 8.0
x_202506_P0004_RetailPartner1 = 51.0
x_202506_P0004_RetailPartner2 = 48.0
x_202506_P0004_RetailPartner3 = 0.0
x_202506_P0004_RetailPartner4 = 0.0
x_202507_P0001_RetailPartner1 = 27.0
x_202507_P0001_RetailPartner2 = 31.0
x_202507_P0001_RetailPartner3 = 11.0
x_202507_P0001_RetailPartner4 = 9.0
x_202507_P0002_RetailPartner1 = 30.0
x_202507_P0002_RetailPartner2 = 32.0
x_202507_P0002_RetailPartner3 = 6.0
x_202507_P0002_RetailPartner4 = 11.0
x_202507_P0003_RetailPartner1 = 41.0
x_202507_P0003_RetailPartner2 = 54.0
x_202507_P0003_RetailPartner4 = 3.0
x_202507_P0004_RetailPartner1 = 22.0
x_202507_P0004_RetailPartner2 = 34.0
x_202507_P0004_RetailPartner3 = 5.0
x_202507_P0004_RetailPartner4 = 8.0
x_202508_P0001_RetailPartner1 = 57.0
x_202508_P0001_RetailPartner2 = 52.0
x_202508_P0001_RetailPartner3 = 0.0
x_202508_P0001_RetailPartner4 = 0.0
x_202508_P0002_RetailPartner1 = 0.0
x_202508_P0002_RetailPartner2 = 0.0
x_202508_P0002_RetailPartner3 = 47.0
x_202508_P0002_RetailPartner4 = 47.0
x_202508_P0003_RetailPartner1 = 8.0
x_202508_P0003_RetailPartner2 = 10.0
x_202508_P0003_RetailPartner3 = 9.0
x_202508_P0003_RetailPartner4 = 5.0
x_202508_P0004_RetailPartner1 = 14.0
x_202508_P0004_RetailPartner2 = 10.0
x_202508_P0004_RetailPartner3 = 1.0
x_202508_P0004_RetailPartner4 = 7.0
x_202509_P0001_RetailPartner1 = 5.0
x_202509_P0001_RetailPartner2 = 5.0
x_202509_P0001_RetailPartner3 = 7.0
x_202509_P0002_RetailPartner2 = 2.0
x_202509_P0002_RetailPartner3 = 2.0
x_202509_P0003_RetailPartner1 = 7.0
x_202509_P0004_RetailPartner1 = 5.0
x_202509_P0004_RetailPartner2 = 8.0
x_202510_P0002_RetailPartner1 = 7.0
x_202510_P0002_RetailPartner2 = 10.0
x_202510_P0002_RetailPartner3 = 4.0
x_202510_P0003_RetailPartner2 = 0.0
x_202510_P0003_RetailPartner3 = 10.0
x_202510_P0004_RetailPartner4 = 3.0
x_202511_P0001_RetailPartner1 = 3.0
x_202511_P0001_RetailPartner2 = 0.0
x_202511_P0001_RetailPartner3 = 10.0
x_202511_P0001_RetailPartner4 = 2.0
x_202511_P0002_RetailPartner4 = 5.0
x_202511_P0003_RetailPartner1 = 0.0
x_202511_P0003_RetailPartner2 = 10.0
x_202511_P0003_RetailPartner4 = 8.0
x_202511_P0004_RetailPartner1 = 7.0
x_202511_P0004_RetailPartner3 = 3.0
x_202512_P0001_RetailPartner1 = 16.0
x_202512_P0001_RetailPartner2 = 15.0
x_202512_P0001_RetailPartner4 = 6.0
x_202512_P0002_RetailPartner1 = 16.0
x_202512_P0002_RetailPartner2 = 29.0
x_202512_P0002_RetailPartner3 = 5.0
x_202512_P0002_RetailPartner4 = 3.0
x_202512_P0003_RetailPartner1 = 24.0
x_202512_P0003_RetailPartner2 = 18.0
x_202512_P0003_RetailPartner3 = 3.0
x_202512_P0003_RetailPartner4 = 7.0
x_202512_P0004_RetailPartner1 = 14.0
x_202512_P0004_RetailPartner2 = 22.0

Total Objective Value = 2117.0
